100
30
29
2
10
32
24
16
26
12
18
20
26
1
18
9
23
9
6
27
11
29
18
20
22
32
26
11
8
30
25
9
29
29
21
10
1
9
5
5
10
7
15
24
28
32
23
9
32
24
11
17
23
2
5
12
19
18
29
16
30
29
28
13
17
21
18
13
11
24
18
9
12
28
25
13
31
22
24
26
32
2
30
19
26
1
1
27
25
22
21
5
15
29
20
23
22
26
21
29
26
13